Rodando pra 1h

Optimize a model with 360129 rows, 539210 columns and 19744339 nonzeros
Coefficient statistics:
  Matrix range    [1e+00, 1e+04]
  Objective range [2e-01, 2e-01]
  Bounds range    [1e+00, 1e+04]
  RHS range       [1e+00, 1e+04]
Presolve removed 2 rows and 2 columns (presolve time = 7s) ...
Presolve removed 3 rows and 3 columns (presolve time = 10s) ...
Presolve removed 3 rows and 3 columns (presolve time = 21s) ...
Presolve removed 6 rows and 6 columns (presolve time = 29s) ...
Presolve removed 6 rows and 6 columns (presolve time = 30s) ...
Presolve removed 6 rows and 6 columns (presolve time = 41s) ...
Presolve removed 6 rows and 6 columns (presolve time = 47s) ...
Presolve removed 6 rows and 6 columns (presolve time = 51s) ...
Presolve removed 6 rows and 6 columns (presolve time = 56s) ...
Presolve removed 6 rows and 6 columns (presolve time = 62s) ...
Presolve removed 6 rows and 6 columns (presolve time = 68s) ...
Presolve removed 6 rows and 6 columns (presolve time = 71s) ...
Presolve removed 6 rows and 6 columns (presolve time = 78s) ...
Presolve removed 6 rows and 6 columns (presolve time = 82s) ...
Presolve removed 6 rows and 6 columns (presolve time = 85s) ...
Presolve removed 6 rows and 6 columns (presolve time = 92s) ...
Presolve removed 6 rows and 6 columns (presolve time = 95s) ...
Presolve removed 6 rows and 6 columns (presolve time = 102s) ...
Presolve removed 6 rows and 6 columns (presolve time = 105s) ...
Presolve removed 6 rows and 6 columns (presolve time = 112s) ...
Presolve removed 6 rows and 6 columns (presolve time = 116s) ...
Presolve removed 6 rows and 6 columns (presolve time = 122s) ...
Presolve removed 6 rows and 6 columns (presolve time = 126s) ...
Presolve removed 6 rows and 6 columns (presolve time = 133s) ...
Presolve removed 6 rows and 6 columns (presolve time = 136s) ...
Presolve removed 6 rows and 6 columns (presolve time = 143s) ...
Presolve removed 6 rows and 6 columns (presolve time = 147s) ...
Presolve removed 6 rows and 6 columns (presolve time = 154s) ...
Presolve removed 6 rows and 6 columns (presolve time = 157s) ...
Presolve removed 6 rows and 6 columns (presolve time = 160s) ...
Presolve removed 6 rows and 6 columns (presolve time = 167s) ...
Presolve removed 6 rows and 6 columns (presolve time = 171s) ...
Presolve removed 6 rows and 6 columns (presolve time = 178s) ...
Presolve removed 6 rows and 6 columns (presolve time = 181s) ...
Presolve removed 6 rows and 6 columns (presolve time = 198s) ...
Presolve removed 6 rows and 6 columns (presolve time = 203s) ...
Presolve removed 6 rows and 6 columns (presolve time = 227s) ...
Presolve removed 6 rows and 6 columns
Presolve time: 227.23s
Presolved: 360123 rows, 539204 columns, 19744297 nonzeros
Variable types: 359400 continuous, 179804 integer (179800 binary)
Optimize a model with 360123 rows, 539204 columns and 19744297 nonzeros
Coefficient statistics:
  Matrix range    [1e+00, 1e+04]
  Objective range [2e-01, 2e-01]
  Bounds range    [1e+00, 1e+04]
  RHS range       [1e+00, 2e+04]
Presolve removed 0 rows and 0 columns (presolve time = 5s) ...
Presolve removed 0 rows and 0 columns (presolve time = 12s) ...
Presolved: 360123 rows, 539204 columns, 19744297 nonzeros


Root simplex log...

Iteration    Objective       Primal Inf.    Dual Inf.      Time
       0    0.0000000e+00   1.814585e+03   0.000000e+00    278s
    1292    0.0000000e+00   0.000000e+00   0.000000e+00    280s

Root relaxation: objective 0.000000e+00, 1292 iterations, 17.71 seconds
Total elapsed time = 280.19s

    Nodes    |    Current Node    |     Objective Bounds      |     Work
 Expl Unexpl |  Obj  Depth IntInf | Incumbent    BestBd   Gap | It/Node Time

     0     0    0.00000    0  625          -    0.00000      -     - 3709s

Explored 0 nodes (137749 simplex iterations) in 3709.62 seconds
Thread count was 1 (of 4 available processors)

Time limit reached
Best objective -, best bound 0.000000000000e+00, gap -
Tempo: 3570.98 segundos

Error code = 10004
Var::get
